============================[ Problem Statistics ]=============================|                                                                             ||  Number of variables:          4242                                         ||  Number of clauses:           10362                                         ||  Parse time:                   0.75 s                                       ||                                                                             |============================[ Search Statistics ]==============================| Conflicts |          ORIGINAL         |          LEARNT          | Progress ||           |    Vars  Clauses Literals |    Limit  Clauses Lit/Cl |          |===============================================================================|       100 |    1591     6567  1195498 |     2407      100     53 | 62.501 % ||       250 |    1591     6567  1195498 |     2648      250     75 | 62.495 % |===============================================================================restarts              : 4conflicts             : 406            (355 /sec)decisions             : 768            (0.00 % random) (671 /sec)propagations          : 13656          (11937 /sec)conflict literals     : 33773          (94.54 % deleted)CPU time              : 1.144 sSATISFIABLE